89 89 
8 15 
47 84 
46 10 
72 19 
31 40 
12 14 
85 55 
70 50 
85 40 
19 34 
55 21 
73 79 
94 19 
62 97 
44 52 
86 52 
19 85 
89 66 
95 61 
85 79 
53 97 
93 39 
4 15 
89 42 
55 8 
76 63 
82 1 
42 76 
21 4 
73 17 
8 11 
69 80 
97 10 
98 44 
71 83 
23 77 
33 68 
16 37 
84 57 
31 39 
17 8 
54 99 
61 96 
75 34 
53 0 
51 13 
12 73 
93 9 
83 91 
